38876 40308 
35006 41053 
39658 39796 
38669 40446 
38904 40196 
37873 40753 
37522 40949 
37678 40799 
39148 40111 
38926 40174 
38670 40341 
38006 40705 
39931 39597 
38416 40601 
38660 40563 
37825 40769 
38157 40639 
36616 41035 
37287 40961 
36737 41003 
38895 40266 
40311 39257 
41036 38641 
40166 39300 
39198 40089 
40002 39483 
39959 39485 
39709 39660 
39678 39752 
38425 40575 
38844 40311 
38213 40608 
36381 41047 
39250 40038 
39485 39992 
40144 39345 
40914 38749 
40459 39139 
39835 39655 
39542 39832 
39680 39708 
39652 39820 
40734 38867 
40428 39231 
40635 39093 
39877 39651 
40843 38854 
40516 39138 
40652 39058 
40918 38716 
40723 39000 
41109 38465 
41078 38557 
40210 39298 
40887 38808 
41082 38477 
40109 39447 
41153 38419 
39952 39513 
41694 37831 
41623 37945 
41459 38128 
41264 38412 
41428 38220 
41734 37127 
41759 37098 
41388 38242 
41357 38334 
